
Gurobi 11.0.3 (linux64) logging started Mon Aug 25 13:37:57 2025

Set parameter LogFile to value "/home/yihong/Coding/OR_SUC/SUC_epstheta_results_bigM100000_thread4/case24_ieee_rts_theta0.1_epsilon0.1_gurobi_seed60000_num_gen100_N_WDR50_load_scaling_factor1_proposed_eps_T5quadra_cost_bc1.03.txt"
Set parameter TimeLimit to value 3600
Gurobi Optimizer version 11.0.3 build v11.0.3rc0 (linux64 - "Ubuntu 20.04.6 LTS")

CPU model: AMD EPYC 7532 32-Core Processor, instruction set [SSE2|AVX|AVX2]
Thread count: 64 physical cores, 128 logical processors, using up to 4 threads

Academic license 2399124 - for non-commercial use only - registered to yi___@ed.ac.uk
Optimize a model with 11547 rows, 6251 columns and 272622 nonzeros
Model fingerprint: 0xc472027a
Model has 500 quadratic constraints
Variable types: 5751 continuous, 500 integer (500 binary)
Coefficient statistics:
  Matrix range     [3e-04, 3e+03]
  QMatrix range    [2e-03, 8e-03]
  QLMatrix range   [1e+00, 6e+01]
  Objective range  [1e+00, 1e+00]
  Bounds range     [1e+00, 1e+00]
  RHS range        [1e+00, 9e+03]
Presolve removed 9537 rows and 2772 columns
Presolve time: 0.07s
Presolved: 2010 rows, 3479 columns, 11523 nonzeros
Presolved model has 500 quadratic constraint(s)
Variable types: 2979 continuous, 500 integer (500 binary)

Root relaxation: objective 6.082611e+03, 1522 iterations, 0.02 seconds (0.02 work units)

    Nodes    |    Current Node    |     Objective Bounds      |     Work
 Expl Unexpl |  Obj  Depth IntInf | Incumbent    BestBd   Gap | It/Node Time

     0     0 6082.61079    0    5          - 6082.61079      -     -    0s
     0     0 96769.3412    0  130          - 96769.3412      -     -    0s
     0     0 96774.5041    0  130          - 96774.5041      -     -    0s
     0     0 158850.009    0   80          - 158850.009      -     -    0s
     0     0 158863.972    0   80          - 158863.972      -     -    0s
     0     0 158885.647    0   65          - 158885.647      -     -    0s
     0     0 158897.652    0   65          - 158897.652      -     -    0s
     0     0 158897.652    0   65          - 158897.652      -     -    0s
     0     2 158897.652    0   65          - 158897.652      -     -    1s
H  112   130                    158922.54532 158909.368  0.01%   5.6    1s
*  112   130              33    158922.54532 158909.368  0.01%   5.6    1s

Cutting planes:
  Gomory: 61
  Implied bound: 118
  MIR: 36
  Flow cover: 87

Explored 131 nodes (4301 simplex iterations) in 1.53 seconds (1.21 work units)
Thread count was 4 (of 128 available processors)

Solution count 2: 158923 158923 

Optimal solution found (tolerance 1.00e-03)
Warning: max constraint violation (4.8056e-07) exceeds tolerance
Best objective 1.589225453180e+05, best bound 1.589093676200e+05, gap 0.0083%

Gurobi 11.0.3 (linux64) logging started Mon Aug 25 13:37:58 2025

Set parameter LogFile to value "/home/yihong/Coding/OR_SUC/SUC_epstheta_results_bigM100000_thread4/case24_ieee_rts_theta0.1_epsilon0.1_gurobi_seed60000_num_gen100_N_WDR50_load_scaling_factor1_proposed_eps_T5quadra_cost_bc1.03.txt"
Set parameter TimeLimit to value 3600
Gurobi Optimizer version 11.0.3 build v11.0.3rc0 (linux64 - "Ubuntu 20.04.6 LTS")

CPU model: AMD EPYC 7532 32-Core Processor, instruction set [SSE2|AVX|AVX2]
Thread count: 64 physical cores, 128 logical processors, using up to 4 threads

Academic license 2399124 - for non-commercial use only - registered to yi___@ed.ac.uk
Optimize a model with 11547 rows, 6252 columns and 274121 nonzeros
Model fingerprint: 0xed88ed4d
Model has 501 quadratic constraints
Variable types: 5752 continuous, 500 integer (500 binary)
Coefficient statistics:
  Matrix range     [3e-04, 3e+03]
  QMatrix range    [2e-03, 5e+01]
  QLMatrix range   [1e+00, 6e+01]
  Objective range  [1e+00, 1e+00]
  Bounds range     [1e-01, 1e+00]
  RHS range        [1e+00, 2e+05]
  QRHS range       [5e+00, 5e+00]
Presolve removed 8737 rows and 2382 columns
Presolve time: 0.07s
Presolved: 3312 rows, 4370 columns, 17937 nonzeros
Presolved model has 500 quadratic constraint(s)
Presolved model has 1 bilinear constraint(s)

Solving non-convex MIQCP

Variable types: 3866 continuous, 504 integer (504 binary)

Root relaxation: objective 1.513558e-03, 4269 iterations, 0.12 seconds (0.17 work units)

    Nodes    |    Current Node    |     Objective Bounds      |     Work
 Expl Unexpl |  Obj  Depth IntInf | Incumbent    BestBd   Gap | It/Node Time

     0     0    0.00151    0    6          -    0.00151      -     -    0s
     0     0    0.00152    0    6          -    0.00152      -     -    0s
H    0     0                       0.0208040    0.00152  92.7%     -    0s
     0     0    0.01721    0   11    0.02080    0.01721  17.3%     -    0s
     0     0    0.01722    0   11    0.02080    0.01722  17.2%     -    0s
H    0     0                       0.0199103    0.01729  13.2%     -    0s
     0     0    0.01748    0   11    0.01991    0.01748  12.2%     -    0s
     0     0    0.01748    0   16    0.01991    0.01748  12.2%     -    0s
     0     0    0.01750    0   11    0.01991    0.01750  12.1%     -    1s
     0     0    0.01750    0   11    0.01991    0.01750  12.1%     -    1s
     0     0    0.01750    0   11    0.01991    0.01750  12.1%     -    1s
     0     2    0.01750    0   11    0.01991    0.01750  12.1%     -    1s
H   53    52                       0.0179375    0.01754  2.21%  32.4    1s
*   53    52              12       0.0179375    0.01754  2.21%  32.4    1s
H   62    46                       0.0179024    0.01754  2.02%  28.4    1s
*   62    46              14       0.0179024    0.01754  2.02%  28.9    1s
H   79    41                       0.0179019    0.01754  2.01%  24.4    1s
*   79    41              16       0.0179019    0.01754  2.01%  24.5    1s
H  125     2                       0.0178949    0.01774  0.89%  18.2    2s
*  125     2               9       0.0178949    0.01776  0.78%  18.2    2s

Cutting planes:
  Gomory: 1
  Lift-and-project: 1
  Implied bound: 15
  MIR: 2
  Flow cover: 2
  Inf proof: 1
  RLT: 5

Explored 146 nodes (7063 simplex iterations) in 2.15 seconds (2.50 work units)
Thread count was 4 (of 128 available processors)

Solution count 6: 0.0178949 0.0179019 0.0179024 ... 0.020804

Optimal solution found (tolerance 1.00e-03)
Warning: max constraint violation (3.3217e-09) exceeds tolerance
Best objective 1.789488045328e-02, best bound 1.789451823760e-02, gap 0.0020%
